\ This file has been generated by DOcplex
\ ENCODING=ISO-8859-1
\Problem name: MIP Model

Minimize
 obj: x_0 + x_1 + x_2 - 0.050000000000 y_0 - 0.050000000000 y_1
      - 0.050000000000 y_2
Subject To
 z_u_d_0: z_0 - x_0 <= 0
 z_u_d_1: z_1 - x_1 <= 0
 z_u_d_2: z_2 - x_2 <= 0
 z_p_d_0: z_0 - y_0 <= 0
 z_p_d_1: z_1 - y_1 <= 0
 z_p_d_2: z_2 - y_2 <= 0
 z_u_p_d_0: z_0 - x_0 - y_0 >= -1
 z_u_p_d_1: z_1 - x_1 - y_1 >= -1
 z_u_p_d_2: z_2 - x_2 - y_2 >= -1
 No_simultaneous_braking_or_acceleration_constraint0: z_0 = 0
 No_simultaneous_braking_or_acceleration_constraint1: z_1 = 0
 No_simultaneous_braking_or_acceleration_constraint2: z_2 = 0
 Distance_constraint: 3 x_0 + 2 x_1 + x_2 - 3 y_0 - 2 y_1 - y_2 = 2
 Net_Zero_constraint: - x_0 - x_1 - x_2 + y_0 + y_1 + y_2 = 0
 Maximum_Speed_constraint: x_0 + x_1 + x_2 <= 2
 Positive_Speed_constraint0: >= 0
 Positive_Speed_constraint1: x_0 - y_0 >= 0
 Positive_Speed_constraint2: x_0 + x_1 - y_0 - y_1 >= 0

Bounds
 0 <= x_0 <= 1
 0 <= x_1 <= 1
 0 <= x_2 <= 1
 0 <= y_0 <= 1
 0 <= y_1 <= 1
 0 <= y_2 <= 1
 0 <= z_0 <= 1
 0 <= z_1 <= 1
 0 <= z_2 <= 1

Binaries
 x_0 x_1 x_2 y_0 y_1 y_2 z_0 z_1 z_2
End
